100 3917.0 4555.0 6301.75 7327.0 10227.0
150 3373.0 4411.0 5528.9 6909.0 7785.0
200 3373.0 4411.0 5553.5 6909.0 9535.0
250 3234.0 4052.0 4863.2 5409.0 8067.0
300 1598.0 3548.0 4186.55 4903.0 6436.0
350 1598.0 3066.0 3727.4 4348.0 6223.0
400 1598.0 2899.0 3434.7 4267.0 5339.0
450 1598.0 2553.0 3245.2 4084.0 4901.0
500 1598.0 2553.0 3165.55 3875.0 4901.0
550 1615.0 2442.0 2866.7 3380.0 5372.0
600 1703.0 2132.0 2769.15 3237.0 5372.0
650 1816.0 2185.0 2576.8 2972.0 3684.0
700 1666.0 2185.0 2533.4 2874.0 3504.0
750 1442.0 2185.0 2464.3 3027.0 3637.0
800 546.0 1828.0 2106.1 2457.0 3637.0
850 546.0 1666.0 1951.4 2439.0 2706.0
900 546.0 1610.0 1834.1 2005.0 2706.0
950 546.0 1554.0 1695.65 2083.0 2457.0
1000 546.0 1271.0 1557.5 1988.0 2698.0
1050 543.0 1271.0 1521.1 1823.0 2457.0
1100 543.0 1271.0 1429.15 1620.0 2268.0
1150 543.0 1222.0 1344.6 1553.0 2042.0
1200 543.0 1224.0 1344.2 1520.0 2042.0
1250 543.0 1060.0 1314.7 1552.0 2042.0
1300 616.0 1222.0 1306.1 1552.0 2042.0
1350 616.0 1037.0 1209.55 1552.0 2042.0
1400 616.0 1039.0 1167.35 1416.0 2042.0
1450 616.0 1037.0 1152.8 1409.0 1675.0
1500 553.0 971.0 1093.5 1381.0 1675.0
1550 553.0 773.0 1012.15 1273.0 1675.0
1600 553.0 734.0 976.0 1283.0 1675.0
1650 553.0 697.0 916.6 1110.0 1675.0
1700 514.0 650.0 881.0 993.0 1675.0
1750 480.0 644.0 790.0 938.0 1675.0
1800 480.0 627.0 776.95 938.0 1675.0
1850 480.0 627.0 746.95 938.0 1021.0
1900 468.0 601.0 738.75 911.0 1021.0
1950 459.0 601.0 751.8 938.0 1021.0
2000 461.0 559.0 731.25 911.0 1021.0
2050 226.0 559.0 690.0 874.0 1021.0
2100 226.0 559.0 705.05 894.0 1021.0
2150 226.0 553.0 662.25 757.0 1021.0
2200 226.0 545.0 663.1 757.0 1131.0
2250 226.0 545.0 652.0 743.0 1131.0
2300 226.0 521.0 642.0 743.0 1131.0
2350 226.0 508.0 606.55 714.0 1131.0
2400 226.0 484.0 584.7 671.0 1131.0
2450 226.0 484.0 553.9 626.0 890.0
2500 226.0 483.0 546.5 626.0 890.0
2550 226.0 483.0 546.7 626.0 894.0
2600 226.0 483.0 542.55 626.0 894.0
2650 226.0 469.0 536.95 626.0 894.0
2700 226.0 461.0 524.95 626.0 894.0
2750 226.0 461.0 515.65 626.0 743.0
2800 226.0 445.0 500.85 598.0 743.0
2850 226.0 419.0 482.75 592.0 743.0
2900 226.0 412.0 473.2 560.0 743.0
2950 226.0 353.0 464.35 598.0 743.0
3000 226.0 348.0 457.7 598.0 743.0
3050 226.0 348.0 447.95 560.0 743.0
3100 226.0 348.0 447.95 560.0 743.0
3150 187.0 328.0 434.7 560.0 743.0
3200 187.0 328.0 434.7 560.0 743.0
3250 187.0 328.0 427.35 560.0 640.0
3300 187.0 328.0 418.4 560.0 640.0
3350 187.0 323.0 411.9 560.0 640.0
3400 187.0 323.0 411.9 560.0 640.0
3450 187.0 323.0 393.6 457.0 626.0
3500 187.0 323.0 393.6 457.0 626.0
3550 187.0 323.0 391.25 457.0 626.0
3600 187.0 323.0 386.4 457.0 597.0
3650 187.0 323.0 386.55 457.0 597.0
3700 187.0 312.0 379.75 457.0 597.0
3750 187.0 312.0 379.65 457.0 597.0
3800 187.0 312.0 376.6 457.0 597.0
3850 187.0 312.0 382.0 463.0 597.0
3900 187.0 312.0 375.2 463.0 597.0
3950 187.0 313.0 375.25 463.0 597.0
4000 187.0 299.0 372.8 463.0 580.0
4050 187.0 299.0 372.35 460.0 580.0
4100 187.0 299.0 362.45 443.0 580.0
4150 187.0 299.0 362.45 443.0 580.0
4200 174.0 287.0 340.7 408.0 523.0
4250 174.0 287.0 343.1 436.0 523.0
4300 174.0 273.0 330.6 408.0 507.0
4350 174.0 273.0 338.85 436.0 526.0
4400 174.0 273.0 342.75 443.0 526.0
4450 174.0 271.0 342.55 443.0 526.0
4500 174.0 271.0 337.95 436.0 526.0
4550 174.0 271.0 338.0 436.0 526.0
4600 174.0 271.0 331.95 408.0 526.0
4650 174.0 271.0 336.15 408.0 610.0
4700 174.0 271.0 335.75 408.0 610.0
4750 174.0 271.0 335.75 408.0 610.0
4800 174.0 266.0 331.3 408.0 610.0
4850 161.0 239.0 318.0 385.0 610.0
4900 161.0 239.0 318.0 385.0 610.0
4950 161.0 239.0 317.95 385.0 610.0
5000 161.0 239.0 317.95 385.0 610.0
5050 161.0 239.0 317.95 385.0 610.0
5100 161.0 239.0 317.95 385.0 610.0
5150 161.0 239.0 318.0 385.0 610.0
5200 161.0 239.0 317.05 371.0 610.0
5250 161.0 239.0 317.05 371.0 610.0
5300 161.0 239.0 317.05 371.0 610.0
5350 138.0 239.0 312.65 371.0 610.0
5400 138.0 239.0 312.65 371.0 610.0
5450 138.0 239.0 303.45 371.0 505.0
5500 138.0 239.0 303.45 371.0 505.0
5550 138.0 239.0 303.45 371.0 505.0
5600 138.0 239.0 303.35 370.0 505.0
5650 138.0 239.0 303.35 370.0 505.0
5700 138.0 239.0 303.25 368.0 505.0
5750 138.0 239.0 294.8 353.0 505.0
5800 138.0 239.0 294.45 353.0 505.0
5850 138.0 239.0 294.45 353.0 505.0
5900 138.0 239.0 285.75 340.0 428.0
5950 138.0 239.0 285.75 340.0 428.0
6000 138.0 225.0 284.9 340.0 428.0
6050 101.0 225.0 276.6 339.0 428.0
6100 101.0 225.0 276.6 339.0 429.0
6150 101.0 222.0 272.4 339.0 429.0
6200 101.0 222.0 272.35 339.0 429.0
6250 101.0 222.0 272.05 339.0 429.0
6300 101.0 222.0 272.05 339.0 429.0
6350 101.0 222.0 272.05 339.0 429.0
6400 101.0 222.0 272.05 339.0 429.0
6450 101.0 212.0 267.75 339.0 429.0
6500 101.0 212.0 267.75 339.0 429.0
6550 101.0 212.0 267.75 339.0 429.0
6600 101.0 212.0 263.75 333.0 429.0
6650 101.0 212.0 263.8 333.0 429.0
6700 101.0 212.0 263.8 333.0 429.0
6750 101.0 207.0 258.3 333.0 429.0
6800 101.0 207.0 253.35 333.0 352.0
6850 101.0 207.0 249.9 333.0 352.0
6900 101.0 207.0 249.9 333.0 352.0
6950 101.0 207.0 249.15 333.0 340.0
7000 101.0 207.0 249.15 333.0 340.0
7050 101.0 207.0 249.15 333.0 340.0
7100 101.0 207.0 249.15 333.0 340.0
7150 101.0 207.0 247.55 333.0 340.0
7200 101.0 207.0 242.65 304.0 338.0
7250 101.0 207.0 242.65 304.0 338.0
7300 101.0 207.0 242.75 304.0 340.0
7350 101.0 207.0 242.7 304.0 340.0
7400 101.0 207.0 242.7 304.0 340.0
7450 101.0 207.0 235.65 289.0 340.0
7500 101.0 207.0 232.4 283.0 340.0
7550 101.0 207.0 232.4 283.0 340.0
7600 101.0 207.0 232.4 283.0 340.0
7650 101.0 207.0 232.4 283.0 340.0
7700 101.0 207.0 232.4 283.0 340.0
7750 101.0 207.0 232.4 283.0 340.0
7800 101.0 207.0 232.4 283.0 340.0
7850 101.0 207.0 232.4 283.0 340.0
7900 101.0 207.0 230.5 283.0 340.0
7950 101.0 207.0 230.5 283.0 340.0
8000 101.0 207.0 230.65 283.0 340.0
8050 101.0 207.0 230.65 283.0 340.0
8100 101.0 181.0 227.25 283.0 340.0
8150 101.0 181.0 226.6 283.0 340.0
8200 101.0 181.0 226.6 283.0 340.0
8250 101.0 181.0 226.6 283.0 340.0
8300 101.0 181.0 226.6 283.0 340.0
8350 101.0 181.0 226.6 283.0 340.0
8400 101.0 181.0 226.6 283.0 340.0
8450 101.0 181.0 226.55 283.0 340.0
8500 101.0 153.0 222.5 283.0 340.0
8550 101.0 153.0 223.7 283.0 340.0
8600 101.0 153.0 223.7 283.0 340.0
8650 101.0 153.0 223.7 283.0 340.0
8700 101.0 153.0 221.55 279.0 340.0
8750 101.0 153.0 221.6 279.0 340.0
8800 101.0 153.0 221.6 279.0 340.0
8850 101.0 153.0 221.6 279.0 340.0
8900 101.0 153.0 221.6 279.0 340.0
8950 101.0 153.0 221.6 279.0 340.0
9000 101.0 153.0 221.6 279.0 340.0
9050 101.0 153.0 221.6 279.0 340.0
9100 101.0 153.0 221.6 279.0 340.0
9150 101.0 153.0 221.6 279.0 340.0
9200 101.0 153.0 221.6 279.0 340.0
9250 101.0 153.0 221.6 279.0 340.0
9300 101.0 153.0 221.6 279.0 340.0
9350 101.0 153.0 221.6 279.0 340.0
9400 101.0 153.0 221.6 279.0 340.0
9450 101.0 153.0 221.6 279.0 340.0
9500 101.0 153.0 222.8 290.0 340.0
9550 101.0 153.0 222.8 290.0 340.0
9600 101.0 153.0 222.8 290.0 340.0
9650 101.0 153.0 222.8 290.0 340.0
9700 101.0 153.0 222.8 290.0 340.0
9750 101.0 153.0 222.8 290.0 340.0
9800 101.0 153.0 222.8 290.0 340.0
9850 101.0 153.0 221.0 290.0 340.0
9900 101.0 152.0 216.85 290.0 340.0
9950 101.0 152.0 210.65 280.0 336.0
10000 101.0 152.0 210.65 280.0 336.0
10050 101.0 152.0 210.65 280.0 336.0
10100 101.0 152.0 210.35 280.0 336.0
10150 101.0 152.0 210.35 280.0 336.0
10200 101.0 144.0 206.45 280.0 336.0
10250 101.0 144.0 206.45 280.0 336.0
10300 101.0 144.0 206.45 280.0 336.0
10350 101.0 144.0 206.4 280.0 336.0
10400 101.0 144.0 206.4 280.0 336.0
10450 101.0 144.0 206.55 280.0 336.0
10500 101.0 144.0 206.55 280.0 336.0
10550 101.0 144.0 206.55 280.0 336.0
10600 101.0 144.0 207.1 280.0 336.0
10650 101.0 144.0 207.1 280.0 336.0
10700 101.0 144.0 207.1 280.0 336.0
10750 101.0 144.0 207.1 280.0 336.0
10800 101.0 144.0 207.1 280.0 336.0
10850 101.0 136.0 196.2 266.0 304.0
10900 101.0 136.0 193.25 240.0 304.0
10950 101.0 136.0 193.25 240.0 304.0
11000 101.0 136.0 192.2 240.0 304.0
11050 101.0 136.0 192.2 240.0 304.0
11100 100.0 136.0 192.15 240.0 304.0
11150 100.0 136.0 190.75 240.0 293.0
11200 100.0 136.0 190.75 240.0 293.0
11250 100.0 136.0 190.75 240.0 293.0
11300 100.0 136.0 190.75 240.0 293.0
11350 100.0 136.0 190.65 240.0 293.0
11400 100.0 136.0 190.65 240.0 293.0
11450 100.0 135.0 190.6 240.0 293.0
11500 100.0 135.0 190.5 240.0 291.0
11550 100.0 135.0 187.9 240.0 291.0
11600 100.0 135.0 187.9 240.0 291.0
11650 100.0 135.0 187.9 240.0 291.0
11700 100.0 135.0 187.9 240.0 291.0
11750 100.0 135.0 187.75 240.0 291.0
11800 100.0 135.0 187.75 240.0 291.0
11850 100.0 135.0 187.35 240.0 291.0
11900 100.0 135.0 187.35 240.0 291.0
11950 100.0 135.0 186.4 240.0 291.0
12000 100.0 135.0 186.4 240.0 291.0
12050 100.0 135.0 186.4 240.0 291.0
12100 100.0 135.0 186.4 240.0 291.0
12150 91.0 123.0 182.55 240.0 289.0
12200 91.0 123.0 182.55 240.0 289.0
12250 91.0 123.0 181.7 240.0 289.0
12300 91.0 123.0 181.7 240.0 289.0
12350 91.0 123.0 181.7 240.0 289.0
12400 91.0 123.0 181.7 240.0 289.0
12450 91.0 123.0 181.7 240.0 289.0
12500 91.0 123.0 181.7 240.0 289.0
12550 91.0 123.0 181.7 240.0 289.0
12600 91.0 123.0 181.7 240.0 289.0
12650 91.0 123.0 181.6 240.0 289.0
12700 91.0 123.0 181.6 240.0 289.0
12750 91.0 123.0 181.6 240.0 289.0
12800 91.0 123.0 181.6 240.0 289.0
12850 91.0 123.0 181.6 240.0 289.0
12900 91.0 123.0 181.6 240.0 289.0
12950 91.0 123.0 181.6 240.0 289.0
13000 91.0 123.0 180.7 240.0 289.0
13050 91.0 123.0 180.6 240.0 289.0
13100 91.0 123.0 180.6 240.0 289.0
13150 91.0 123.0 179.35 240.0 289.0
13200 91.0 123.0 179.35 240.0 289.0
13250 91.0 123.0 179.0 240.0 289.0
13300 91.0 123.0 179.0 240.0 289.0
13350 91.0 123.0 176.6 240.0 289.0
13400 91.0 123.0 174.7 240.0 289.0
13450 91.0 123.0 174.7 240.0 289.0
13500 91.0 123.0 174.7 240.0 289.0
13550 91.0 123.0 174.25 240.0 289.0
13600 91.0 123.0 174.25 240.0 289.0
13650 91.0 123.0 174.25 240.0 289.0
13700 91.0 123.0 174.25 240.0 289.0
13750 91.0 116.0 172.85 240.0 289.0
13800 91.0 116.0 172.6 240.0 289.0
13850 91.0 117.0 172.65 240.0 289.0
13900 91.0 117.0 172.65 240.0 289.0
13950 91.0 117.0 171.6 240.0 289.0
14000 91.0 117.0 171.6 240.0 289.0
14050 91.0 117.0 171.6 240.0 289.0
14100 91.0 117.0 171.6 240.0 289.0
14150 91.0 113.0 169.95 240.0 289.0
14200 91.0 112.0 170.05 240.0 289.0
14250 91.0 112.0 170.05 240.0 289.0
14300 91.0 112.0 170.05 240.0 289.0
14350 91.0 112.0 170.1 240.0 289.0
14400 91.0 112.0 170.1 240.0 289.0
14450 91.0 112.0 170.1 240.0 289.0
14500 91.0 112.0 170.1 240.0 289.0
14550 91.0 112.0 170.1 240.0 289.0
14600 91.0 112.0 170.1 240.0 289.0
14650 91.0 112.0 170.1 240.0 289.0
14700 91.0 112.0 170.1 240.0 289.0
14750 91.0 112.0 170.1 240.0 289.0
14800 91.0 108.0 168.9 240.0 289.0
14850 91.0 108.0 168.9 240.0 289.0
14900 91.0 108.0 168.9 240.0 289.0
14950 91.0 108.0 168.9 240.0 289.0
15000 91.0 108.0 168.9 240.0 289.0
15050 91.0 108.0 167.65 240.0 289.0
15100 91.0 108.0 164.75 231.0 256.0
15150 91.0 108.0 164.75 231.0 256.0
15200 91.0 108.0 164.8 231.0 256.0
15250 91.0 108.0 164.8 231.0 256.0
15300 91.0 108.0 164.8 231.0 256.0
15350 91.0 108.0 164.8 231.0 256.0
15400 91.0 108.0 164.8 231.0 256.0
15450 91.0 108.0 164.65 231.0 254.0
15500 91.0 108.0 164.65 231.0 254.0
15550 91.0 108.0 164.65 231.0 254.0
15600 91.0 108.0 164.65 231.0 254.0
15650 91.0 108.0 164.7 231.0 254.0
15700 91.0 108.0 164.65 230.0 254.0
15750 91.0 108.0 164.7 230.0 254.0
15800 91.0 108.0 164.65 230.0 254.0
15850 91.0 108.0 164.65 230.0 254.0
15900 91.0 108.0 164.65 230.0 254.0
15950 91.0 108.0 164.65 230.0 254.0
16000 91.0 108.0 164.65 230.0 254.0
16050 91.0 108.0 164.65 230.0 254.0
16100 91.0 108.0 164.65 230.0 254.0
16150 91.0 108.0 164.65 230.0 254.0
16200 91.0 108.0 164.65 230.0 254.0
16250 91.0 108.0 164.6 230.0 254.0
16300 91.0 108.0 164.6 230.0 254.0
16350 91.0 108.0 164.6 230.0 254.0
16400 91.0 108.0 161.7 219.0 254.0
16450 91.0 108.0 161.7 219.0 254.0
16500 91.0 108.0 161.7 219.0 254.0
16550 91.0 108.0 161.7 219.0 254.0
16600 91.0 108.0 161.7 219.0 254.0
16650 91.0 108.0 161.7 219.0 254.0
16700 91.0 108.0 161.7 219.0 254.0
16750 91.0 108.0 161.7 219.0 254.0
16800 91.0 108.0 161.6 219.0 254.0
16850 91.0 108.0 161.4 219.0 254.0
16900 91.0 108.0 161.4 219.0 254.0
16950 91.0 108.0 161.4 219.0 254.0
17000 91.0 108.0 161.45 219.0 254.0
17050 91.0 108.0 161.45 219.0 254.0
17100 91.0 108.0 158.1 216.0 244.0
17150 91.0 108.0 158.1 216.0 244.0
17200 91.0 108.0 158.1 216.0 244.0
17250 91.0 108.0 158.1 216.0 244.0
17300 91.0 108.0 158.1 216.0 244.0
17350 91.0 108.0 158.1 216.0 244.0
17400 91.0 108.0 158.1 216.0 244.0
17450 91.0 108.0 158.1 216.0 244.0
17500 91.0 108.0 158.1 216.0 244.0
17550 91.0 108.0 158.1 216.0 244.0
17600 91.0 108.0 158.1 216.0 244.0
17650 91.0 108.0 158.1 216.0 244.0
17700 91.0 108.0 158.1 216.0 244.0
17750 91.0 108.0 158.1 216.0 244.0
17800 91.0 108.0 158.1 216.0 244.0
17850 91.0 108.0 159.1 219.0 244.0
17900 91.0 108.0 158.75 219.0 244.0
17950 91.0 108.0 158.75 219.0 244.0
18000 91.0 108.0 158.75 219.0 244.0
18050 91.0 108.0 158.75 219.0 244.0
18100 91.0 108.0 158.75 219.0 244.0
18150 91.0 108.0 158.75 219.0 244.0
18200 91.0 108.0 157.7 219.0 244.0
18250 91.0 108.0 157.25 219.0 244.0
18300 91.0 108.0 157.25 219.0 244.0
18350 91.0 108.0 155.3 216.0 244.0
18400 91.0 108.0 153.7 191.0 244.0
18450 91.0 108.0 153.7 191.0 244.0
18500 91.0 108.0 153.7 191.0 244.0
18550 91.0 108.0 153.7 191.0 244.0
18600 91.0 108.0 153.7 191.0 244.0
18650 91.0 108.0 153.7 191.0 244.0
18700 91.0 108.0 153.7 191.0 244.0
18750 91.0 108.0 153.7 191.0 244.0
18800 91.0 108.0 153.6 191.0 244.0
18850 91.0 108.0 153.6 191.0 244.0
18900 91.0 108.0 153.6 191.0 244.0
18950 91.0 108.0 153.6 191.0 244.0
19000 91.0 108.0 153.6 191.0 244.0
19050 91.0 108.0 153.6 191.0 244.0
19100 91.0 108.0 153.6 191.0 244.0
19150 91.0 108.0 153.6 191.0 244.0
19200 91.0 108.0 153.6 191.0 244.0
19250 91.0 108.0 153.6 191.0 244.0
19300 91.0 108.0 153.6 191.0 244.0
19350 91.0 108.0 153.6 191.0 244.0
19400 91.0 108.0 153.55 191.0 244.0
19450 91.0 108.0 153.55 191.0 244.0
19500 91.0 108.0 153.55 191.0 244.0
19550 91.0 108.0 153.55 191.0 244.0
19600 91.0 108.0 153.55 191.0 244.0
19650 91.0 108.0 153.65 191.0 244.0
19700 91.0 108.0 153.65 191.0 244.0
19750 91.0 108.0 153.65 191.0 244.0
19800 91.0 108.0 153.65 191.0 244.0
19850 91.0 108.0 153.65 191.0 244.0
19900 91.0 108.0 153.65 191.0 244.0
19950 91.0 108.0 153.65 191.0 244.0
20000 91.0 108.0 153.65 191.0 244.0
20050 91.0 108.0 153.65 191.0 244.0
20100 91.0 108.0 153.55 191.0 244.0
20150 91.0 103.0 149.2 191.0 244.0
20200 91.0 103.0 149.2 191.0 244.0
20250 91.0 103.0 149.2 191.0 244.0
20300 91.0 103.0 149.2 191.0 244.0
20350 91.0 103.0 149.2 191.0 244.0
20400 91.0 103.0 149.1 191.0 244.0
20450 91.0 103.0 149.0 189.0 244.0
20500 91.0 103.0 149.0 189.0 244.0
20550 91.0 103.0 149.0 189.0 244.0
20600 91.0 103.0 149.0 189.0 244.0
20650 91.0 103.0 148.95 189.0 244.0
20700 91.0 103.0 148.95 189.0 244.0
20750 91.0 103.0 148.95 189.0 244.0
20800 91.0 103.0 148.55 189.0 244.0
20850 91.0 103.0 147.1 189.0 244.0
20900 91.0 103.0 147.1 189.0 244.0
20950 91.0 103.0 147.1 189.0 244.0
21000 87.0 103.0 146.8 189.0 244.0
21050 87.0 103.0 146.5 189.0 244.0
21100 87.0 103.0 146.55 189.0 244.0
21150 87.0 103.0 146.55 189.0 244.0
21200 87.0 103.0 146.55 189.0 244.0
21250 87.0 103.0 146.55 189.0 244.0
21300 87.0 103.0 146.55 189.0 244.0
21350 87.0 103.0 146.55 189.0 244.0
21400 87.0 103.0 146.55 189.0 244.0
21450 87.0 103.0 146.6 189.0 244.0
21500 87.0 103.0 146.6 189.0 244.0
21550 87.0 103.0 146.6 189.0 244.0
21600 87.0 103.0 146.6 189.0 244.0
21650 87.0 103.0 146.6 189.0 244.0
21700 87.0 103.0 146.6 189.0 244.0
21750 87.0 103.0 146.6 189.0 244.0
21800 87.0 103.0 147.4 189.0 244.0
21850 87.0 103.0 144.9 184.0 244.0
21900 87.0 103.0 144.9 184.0 244.0
21950 87.0 103.0 144.9 184.0 244.0
22000 87.0 103.0 144.9 184.0 244.0
22050 87.0 103.0 144.9 184.0 244.0
22100 87.0 103.0 144.9 184.0 244.0
22150 87.0 103.0 144.35 182.0 244.0
22200 87.0 103.0 140.45 182.0 244.0
22250 87.0 103.0 140.45 182.0 244.0
22300 87.0 103.0 140.35 182.0 244.0
22350 87.0 103.0 140.35 182.0 244.0
22400 87.0 103.0 140.35 182.0 244.0
22450 87.0 103.0 140.35 182.0 244.0
22500 87.0 103.0 140.35 182.0 244.0
22550 87.0 103.0 140.35 182.0 244.0
22600 87.0 103.0 140.35 182.0 244.0
22650 87.0 103.0 140.35 182.0 244.0
22700 87.0 103.0 140.35 182.0 244.0
22750 87.0 103.0 140.35 182.0 244.0
22800 87.0 103.0 140.35 182.0 244.0
22850 87.0 103.0 140.35 182.0 244.0
22900 87.0 103.0 140.35 182.0 244.0
22950 87.0 103.0 140.35 182.0 244.0
23000 87.0 103.0 140.35 182.0 244.0
23050 87.0 103.0 140.35 182.0 244.0
23100 87.0 103.0 140.35 182.0 244.0
23150 87.0 103.0 140.4 182.0 244.0
23200 87.0 103.0 140.4 182.0 244.0
23250 86.0 103.0 140.35 182.0 244.0
23300 86.0 103.0 140.35 182.0 244.0
23350 86.0 103.0 140.35 182.0 244.0
23400 86.0 103.0 139.6 182.0 244.0
23450 86.0 103.0 139.55 182.0 244.0
23500 86.0 103.0 139.55 182.0 244.0
23550 86.0 103.0 139.55 182.0 244.0
23600 86.0 103.0 139.55 182.0 244.0
23650 86.0 103.0 139.6 182.0 244.0
23700 86.0 103.0 139.6 182.0 244.0
23750 86.0 103.0 139.6 182.0 244.0
23800 86.0 103.0 138.6 178.0 244.0
23850 86.0 103.0 138.6 178.0 244.0
23900 86.0 103.0 138.6 178.0 244.0
23950 86.0 103.0 138.6 178.0 244.0
24000 86.0 103.0 138.6 178.0 244.0
24050 86.0 103.0 138.6 178.0 244.0
24100 86.0 103.0 138.6 178.0 244.0
24150 86.0 103.0 138.6 178.0 244.0
24200 86.0 103.0 138.6 178.0 244.0
24250 86.0 103.0 138.6 178.0 244.0
24300 86.0 103.0 138.6 178.0 244.0
24350 86.0 103.0 138.4 178.0 244.0
24400 86.0 103.0 138.4 178.0 244.0
24450 86.0 103.0 137.0 178.0 244.0
24500 86.0 103.0 137.0 178.0 244.0
24550 86.0 103.0 137.0 178.0 244.0
24600 86.0 103.0 137.0 178.0 244.0
24650 86.0 103.0 137.0 178.0 244.0
24700 86.0 103.0 137.0 178.0 244.0
24750 86.0 103.0 135.7 170.0 244.0
24800 86.0 103.0 135.6 170.0 244.0
24850 86.0 103.0 135.6 170.0 244.0
24900 86.0 103.0 135.6 170.0 244.0
24950 86.0 103.0 135.5 170.0 244.0
25000 86.0 103.0 133.85 170.0 244.0
25050 86.0 103.0 133.85 170.0 244.0
25100 86.0 103.0 133.85 170.0 244.0
25150 86.0 103.0 133.85 170.0 244.0
25200 86.0 103.0 133.85 170.0 244.0
25250 86.0 103.0 133.85 170.0 244.0
25300 86.0 103.0 133.75 170.0 244.0
25350 86.0 103.0 133.75 170.0 244.0
25400 86.0 103.0 133.65 170.0 244.0
25450 86.0 103.0 133.65 170.0 244.0
25500 86.0 103.0 133.65 170.0 244.0
25550 86.0 103.0 133.65 170.0 244.0
25600 86.0 103.0 133.65 170.0 244.0
25650 86.0 103.0 133.65 170.0 244.0
25700 86.0 103.0 133.65 170.0 244.0
25750 86.0 103.0 133.65 170.0 244.0
25800 86.0 103.0 133.65 170.0 244.0
25850 86.0 103.0 133.65 170.0 244.0
25900 86.0 103.0 133.55 170.0 244.0
25950 86.0 103.0 133.55 170.0 244.0
26000 86.0 103.0 133.1 170.0 244.0
26050 86.0 103.0 133.1 170.0 244.0
26100 86.0 103.0 133.1 170.0 244.0
26150 86.0 103.0 133.1 170.0 244.0
26200 86.0 103.0 133.05 170.0 244.0
26250 86.0 103.0 133.05 170.0 244.0
26300 86.0 103.0 133.05 170.0 244.0
26350 86.0 103.0 133.05 170.0 244.0
26400 86.0 103.0 133.05 170.0 244.0
26450 86.0 103.0 133.05 170.0 244.0
26500 86.0 103.0 133.05 170.0 244.0
26550 86.0 103.0 132.9 170.0 244.0
26600 86.0 103.0 132.9 170.0 244.0
26650 86.0 103.0 132.8 168.0 244.0
26700 86.0 103.0 132.8 168.0 244.0
26750 86.0 103.0 132.8 168.0 244.0
26800 86.0 103.0 132.8 168.0 244.0
26850 86.0 103.0 132.8 168.0 244.0
26900 86.0 103.0 132.8 168.0 244.0
26950 86.0 103.0 132.7 168.0 244.0
27000 86.0 103.0 132.7 168.0 244.0
27050 86.0 103.0 132.7 168.0 244.0
27100 86.0 103.0 129.95 152.0 244.0
27150 86.0 103.0 129.95 152.0 244.0
27200 86.0 103.0 129.95 152.0 244.0
27250 85.0 100.0 129.05 152.0 244.0
27300 85.0 100.0 129.05 152.0 244.0
27350 85.0 100.0 129.05 152.0 244.0
27400 85.0 100.0 129.05 152.0 244.0
27450 85.0 100.0 129.05 152.0 244.0
27500 85.0 100.0 129.05 152.0 244.0
27550 85.0 100.0 129.05 152.0 244.0
27600 69.0 97.0 126.3 152.0 244.0
27650 69.0 97.0 126.3 152.0 244.0
27700 69.0 97.0 126.3 152.0 244.0
27750 69.0 97.0 126.3 152.0 244.0
27800 69.0 97.0 126.3 152.0 244.0
27850 69.0 97.0 126.3 152.0 244.0
27900 69.0 97.0 126.3 152.0 244.0
27950 69.0 97.0 126.3 152.0 244.0
28000 69.0 97.0 126.25 152.0 244.0
28050 69.0 97.0 126.25 152.0 244.0
28100 69.0 97.0 126.25 152.0 244.0
28150 69.0 97.0 126.2 152.0 244.0
28200 69.0 95.0 126.1 152.0 244.0
28250 69.0 95.0 126.1 152.0 244.0
28300 69.0 95.0 126.1 152.0 244.0
28350 69.0 95.0 126.1 152.0 244.0
28400 69.0 95.0 126.1 152.0 244.0
28450 69.0 95.0 126.05 152.0 244.0
28500 69.0 95.0 126.05 152.0 244.0
28550 69.0 95.0 126.05 152.0 244.0
28600 69.0 95.0 126.05 152.0 244.0
28650 69.0 95.0 126.05 152.0 244.0
28700 69.0 95.0 122.05 152.0 183.0
28750 69.0 95.0 122.05 152.0 183.0
28800 69.0 95.0 122.05 152.0 183.0
28850 69.0 95.0 122.05 152.0 183.0
28900 68.0 95.0 122.0 152.0 183.0
28950 68.0 95.0 122.0 152.0 183.0
29000 68.0 95.0 122.0 152.0 183.0
29050 68.0 95.0 121.5 152.0 183.0
29100 68.0 95.0 121.5 152.0 183.0
29150 68.0 95.0 121.5 152.0 183.0
29200 68.0 95.0 121.5 152.0 183.0
29250 68.0 95.0 121.5 152.0 183.0
29300 68.0 95.0 121.45 152.0 183.0
29350 68.0 95.0 121.45 152.0 183.0
29400 68.0 95.0 121.45 152.0 183.0
29450 68.0 95.0 121.45 152.0 183.0
29500 68.0 95.0 121.45 152.0 183.0
29550 68.0 95.0 121.45 152.0 183.0
29600 68.0 95.0 121.45 152.0 183.0
29650 68.0 95.0 121.45 152.0 183.0
29700 68.0 95.0 121.45 152.0 183.0
29750 68.0 95.0 121.45 152.0 183.0
29800 68.0 95.0 121.45 152.0 183.0
29850 68.0 95.0 121.45 152.0 183.0
29900 68.0 95.0 121.05 145.0 183.0
29950 68.0 95.0 121.05 145.0 183.0
30000 68.0 95.0 121.05 145.0 183.0
30050 68.0 95.0 121.05 145.0 183.0
30100 68.0 95.0 121.05 145.0 183.0
30150 68.0 95.0 121.05 145.0 183.0
30200 68.0 95.0 121.05 145.0 183.0
30250 68.0 95.0 121.05 145.0 183.0
30300 68.0 95.0 121.05 145.0 183.0
30350 68.0 95.0 121.05 145.0 183.0
30400 68.0 95.0 121.0 145.0 183.0
30450 68.0 95.0 120.8 145.0 183.0
30500 68.0 95.0 120.8 145.0 183.0
30550 68.0 95.0 120.8 145.0 183.0
30600 68.0 95.0 120.8 145.0 183.0
30650 68.0 95.0 120.8 145.0 183.0
30700 68.0 95.0 120.8 145.0 183.0
30750 68.0 95.0 120.8 145.0 183.0
30800 68.0 95.0 120.8 145.0 183.0
30850 68.0 95.0 120.8 145.0 183.0
30900 68.0 95.0 120.8 145.0 183.0
30950 68.0 95.0 120.8 145.0 183.0
31000 68.0 95.0 120.8 145.0 183.0
31050 68.0 95.0 120.8 145.0 183.0
31100 68.0 95.0 120.8 145.0 183.0
31150 68.0 95.0 120.8 145.0 183.0
31200 68.0 95.0 120.8 145.0 183.0
31250 68.0 95.0 120.8 145.0 183.0
31300 65.0 95.0 120.55 145.0 183.0
31350 65.0 95.0 120.1 145.0 180.0
31400 65.0 95.0 120.05 145.0 180.0
31450 65.0 95.0 120.05 145.0 180.0
31500 65.0 95.0 120.05 145.0 180.0
31550 65.0 95.0 120.05 145.0 180.0
31600 65.0 95.0 120.05 145.0 180.0
31650 65.0 95.0 120.05 145.0 180.0
31700 65.0 95.0 120.05 145.0 180.0
31750 65.0 95.0 118.6 145.0 180.0
31800 65.0 95.0 118.6 145.0 180.0
31850 65.0 95.0 118.6 145.0 180.0
31900 65.0 95.0 118.6 145.0 180.0
31950 65.0 95.0 118.6 145.0 180.0
32000 65.0 94.0 118.55 145.0 180.0
32050 65.0 94.0 118.55 145.0 180.0
32100 65.0 94.0 118.55 145.0 180.0
32150 65.0 94.0 118.55 145.0 180.0
32200 65.0 94.0 118.55 145.0 180.0
32250 65.0 94.0 118.45 145.0 180.0
32300 65.0 94.0 118.45 145.0 180.0
32350 65.0 94.0 118.45 145.0 180.0
32400 65.0 94.0 118.35 145.0 178.0
32450 65.0 94.0 118.3 145.0 178.0
32500 65.0 94.0 118.3 145.0 178.0
32550 65.0 94.0 118.3 145.0 178.0
32600 65.0 94.0 118.3 145.0 178.0
32650 65.0 94.0 118.3 145.0 178.0
32700 65.0 94.0 118.3 145.0 178.0
32750 65.0 94.0 118.3 145.0 178.0
32800 65.0 94.0 118.3 145.0 178.0
32850 65.0 94.0 118.5 145.0 178.0
32900 65.0 94.0 118.35 145.0 178.0
32950 65.0 94.0 118.35 145.0 178.0
33000 65.0 94.0 118.25 145.0 178.0
33050 65.0 94.0 118.25 145.0 178.0
33100 65.0 94.0 118.25 145.0 178.0
33150 65.0 94.0 118.25 145.0 178.0
33200 65.0 94.0 118.25 145.0 178.0
33250 65.0 94.0 118.25 145.0 178.0
33300 65.0 94.0 118.4 145.0 178.0
33350 65.0 94.0 118.4 145.0 178.0
33400 65.0 94.0 118.4 145.0 178.0
33450 65.0 94.0 118.4 145.0 178.0
33500 65.0 94.0 118.4 145.0 178.0
33550 65.0 94.0 118.05 145.0 178.0
33600 65.0 94.0 117.75 145.0 178.0
33650 65.0 94.0 117.75 145.0 178.0
33700 65.0 94.0 117.75 145.0 178.0
33750 65.0 94.0 117.75 145.0 178.0
33800 65.0 94.0 117.65 145.0 178.0
33850 65.0 94.0 117.65 145.0 178.0
33900 65.0 94.0 117.65 145.0 178.0
33950 65.0 94.0 117.65 145.0 178.0
34000 65.0 94.0 117.65 145.0 178.0
34050 65.0 94.0 117.65 145.0 178.0
34100 65.0 94.0 117.8 145.0 178.0
34150 65.0 94.0 117.8 145.0 178.0
34200 65.0 94.0 117.8 145.0 178.0
34250 65.0 94.0 117.8 145.0 178.0
34300 65.0 94.0 117.85 146.0 178.0
34350 65.0 94.0 117.85 146.0 178.0
34400 65.0 93.0 117.7 146.0 178.0
34450 65.0 93.0 117.7 146.0 178.0
34500 65.0 93.0 117.6 146.0 178.0
34550 65.0 93.0 117.6 146.0 178.0
34600 65.0 93.0 117.6 146.0 178.0
34650 65.0 93.0 117.6 146.0 178.0
34700 65.0 93.0 117.6 146.0 178.0
34750 65.0 93.0 117.6 146.0 178.0
34800 65.0 93.0 117.6 146.0 178.0
34850 65.0 93.0 117.55 146.0 178.0
34900 65.0 93.0 117.55 146.0 178.0
34950 65.0 93.0 117.55 146.0 178.0
35000 65.0 93.0 117.55 146.0 178.0
35050 65.0 93.0 117.55 146.0 178.0
35100 65.0 93.0 117.55 146.0 178.0
35150 65.0 93.0 117.4 146.0 178.0
35200 65.0 93.0 117.4 146.0 178.0
35250 65.0 93.0 117.4 146.0 178.0
35300 65.0 93.0 117.35 146.0 178.0
35350 65.0 93.0 117.35 146.0 178.0
35400 65.0 93.0 117.35 146.0 178.0
35450 65.0 93.0 117.35 146.0 178.0
35500 65.0 93.0 117.35 146.0 178.0
35550 65.0 93.0 117.35 146.0 178.0
35600 65.0 93.0 117.35 146.0 178.0
35650 65.0 93.0 117.35 146.0 178.0
35700 65.0 93.0 117.3 146.0 178.0
35750 65.0 93.0 117.2 144.0 178.0
35800 65.0 93.0 117.2 144.0 178.0
35850 65.0 93.0 117.2 144.0 178.0
35900 65.0 93.0 117.2 144.0 178.0
35950 65.0 93.0 117.2 144.0 178.0
36000 65.0 93.0 117.2 144.0 178.0
36050 65.0 93.0 117.2 144.0 178.0
36100 65.0 93.0 117.2 144.0 178.0
36150 65.0 93.0 117.2 144.0 178.0
36200 65.0 93.0 117.2 144.0 178.0
36250 65.0 93.0 117.2 144.0 178.0
36300 65.0 93.0 117.2 144.0 178.0
36350 65.0 93.0 117.2 144.0 178.0
36400 65.0 93.0 117.2 144.0 178.0
36450 65.0 93.0 116.2 144.0 178.0
36500 65.0 92.0 116.05 144.0 178.0
36550 65.0 92.0 116.05 144.0 178.0
36600 65.0 92.0 116.05 144.0 178.0
36650 65.0 92.0 116.05 144.0 178.0
36700 65.0 92.0 116.05 144.0 178.0
36750 65.0 92.0 116.05 144.0 178.0
36800 65.0 92.0 116.05 144.0 178.0
36850 65.0 92.0 114.55 142.0 178.0
36900 65.0 92.0 114.4 142.0 178.0
36950 65.0 92.0 114.4 142.0 178.0
37000 65.0 92.0 114.4 142.0 178.0
37050 65.0 92.0 114.4 142.0 178.0
37100 65.0 92.0 114.4 142.0 178.0
37150 65.0 92.0 114.4 142.0 178.0
37200 65.0 92.0 114.4 142.0 178.0
37250 65.0 92.0 114.4 142.0 178.0
37300 65.0 92.0 114.3 142.0 178.0
37350 65.0 92.0 114.3 142.0 178.0
37400 65.0 92.0 114.3 142.0 178.0
37450 65.0 92.0 114.3 142.0 178.0
37500 65.0 92.0 114.3 142.0 178.0
37550 65.0 92.0 114.3 142.0 178.0
37600 65.0 92.0 114.3 142.0 178.0
37650 65.0 92.0 114.35 142.0 178.0
37700 65.0 92.0 114.05 136.0 178.0
37750 65.0 92.0 114.05 136.0 178.0
37800 65.0 92.0 114.05 136.0 178.0
37850 65.0 92.0 114.05 136.0 178.0
37900 65.0 92.0 114.05 136.0 178.0
37950 65.0 92.0 114.05 136.0 178.0
38000 65.0 92.0 114.05 136.0 178.0
38050 65.0 92.0 114.0 136.0 178.0
38100 65.0 92.0 114.0 136.0 178.0
38150 65.0 92.0 114.0 136.0 178.0
38200 65.0 92.0 114.0 136.0 178.0
38250 65.0 92.0 114.0 136.0 178.0
38300 65.0 92.0 114.0 136.0 178.0
38350 65.0 92.0 114.0 136.0 178.0
38400 65.0 92.0 114.0 136.0 178.0
38450 65.0 92.0 114.0 136.0 178.0
38500 65.0 92.0 113.9 136.0 178.0
38550 65.0 92.0 113.9 136.0 178.0
38600 65.0 92.0 113.9 136.0 178.0
38650 65.0 92.0 113.85 136.0 178.0
38700 65.0 92.0 113.85 136.0 178.0
38750 65.0 92.0 113.85 136.0 178.0
38800 65.0 92.0 113.85 136.0 178.0
38850 65.0 92.0 113.85 136.0 178.0
38900 65.0 92.0 113.85 136.0 178.0
38950 65.0 92.0 113.85 136.0 178.0
39000 65.0 92.0 113.85 136.0 178.0
39050 65.0 92.0 111.35 128.0 174.0
39100 65.0 92.0 111.25 128.0 174.0
39150 65.0 92.0 111.25 128.0 174.0
39200 65.0 92.0 111.25 128.0 174.0
39250 65.0 92.0 111.25 128.0 174.0
39300 65.0 92.0 111.25 128.0 174.0
39350 65.0 92.0 111.05 128.0 174.0
39400 65.0 92.0 111.05 128.0 174.0
39450 65.0 92.0 111.05 128.0 174.0
39500 65.0 92.0 111.05 128.0 174.0
39550 65.0 92.0 111.05 128.0 174.0
39600 65.0 92.0 111.05 128.0 174.0
39650 65.0 92.0 111.0 128.0 174.0
39700 65.0 92.0 111.0 128.0 174.0
39750 65.0 92.0 111.0 128.0 174.0
39800 65.0 92.0 111.0 128.0 174.0
39850 65.0 92.0 110.85 128.0 174.0
39900 65.0 92.0 110.85 128.0 174.0
39950 65.0 92.0 110.8 128.0 174.0
40000 65.0 92.0 110.65 128.0 174.0
40050 65.0 92.0 110.65 128.0 174.0
40100 65.0 92.0 110.65 128.0 174.0
40150 65.0 92.0 110.6 128.0 174.0
40200 65.0 92.0 110.6 128.0 174.0
40250 65.0 92.0 110.6 128.0 174.0
40300 65.0 92.0 110.6 128.0 174.0
40350 65.0 92.0 110.55 128.0 174.0
40400 65.0 92.0 110.55 128.0 174.0
40450 65.0 92.0 110.5 128.0 174.0
40500 65.0 92.0 110.5 128.0 174.0
40550 65.0 92.0 110.5 128.0 174.0
40600 65.0 92.0 110.5 128.0 174.0
40650 65.0 92.0 110.5 128.0 174.0
40700 65.0 92.0 110.5 128.0 174.0
40750 65.0 92.0 110.5 128.0 174.0
40800 65.0 92.0 110.5 128.0 174.0
40850 65.0 92.0 110.5 128.0 174.0
40900 65.0 92.0 110.5 128.0 174.0
40950 65.0 92.0 110.5 128.0 174.0
41000 65.0 92.0 110.5 128.0 174.0
41050 65.0 92.0 110.5 128.0 174.0
41100 65.0 92.0 110.5 128.0 174.0
41150 65.0 92.0 110.5 128.0 174.0
41200 65.0 92.0 110.5 128.0 174.0
41250 65.0 92.0 110.5 128.0 174.0
41300 65.0 92.0 110.5 128.0 174.0
41350 65.0 92.0 110.5 128.0 174.0
41400 65.0 92.0 110.5 128.0 174.0
41450 65.0 92.0 110.35 128.0 174.0
41500 65.0 92.0 110.35 128.0 174.0
41550 65.0 92.0 110.35 128.0 174.0
41600 65.0 92.0 110.35 128.0 174.0
41650 65.0 92.0 110.35 128.0 174.0
41700 65.0 92.0 110.35 128.0 174.0
41750 65.0 92.0 110.35 128.0 174.0
41800 65.0 92.0 110.35 128.0 174.0
41850 65.0 92.0 110.35 128.0 174.0
41900 65.0 92.0 110.3 128.0 174.0
41950 65.0 92.0 110.3 128.0 174.0
42000 65.0 92.0 110.3 128.0 174.0
42050 65.0 92.0 110.3 128.0 174.0
42100 65.0 92.0 110.3 128.0 174.0
42150 65.0 92.0 110.2 128.0 174.0
42200 65.0 92.0 110.2 128.0 174.0
42250 65.0 92.0 110.2 128.0 174.0
42300 65.0 92.0 110.2 128.0 174.0
42350 65.0 92.0 110.2 128.0 174.0
42400 65.0 92.0 110.2 128.0 174.0
42450 65.0 92.0 110.2 128.0 174.0
42500 65.0 92.0 110.2 128.0 174.0
42550 63.0 86.0 105.65 127.0 174.0
42600 63.0 86.0 105.65 127.0 174.0
42650 63.0 86.0 105.65 127.0 174.0
42700 63.0 86.0 105.65 127.0 174.0
42750 63.0 86.0 105.5 127.0 174.0
42800 63.0 86.0 105.5 127.0 174.0
42850 63.0 86.0 105.5 127.0 174.0
42900 63.0 86.0 105.5 127.0 174.0
42950 63.0 86.0 105.5 127.0 174.0
43000 63.0 86.0 105.5 127.0 174.0
43050 63.0 86.0 105.5 127.0 174.0
43100 63.0 86.0 105.5 127.0 174.0
43150 63.0 86.0 105.5 127.0 174.0
43200 63.0 86.0 105.5 127.0 174.0
43250 63.0 86.0 105.5 127.0 174.0
43300 63.0 86.0 105.5 127.0 174.0
43350 63.0 86.0 105.5 127.0 174.0
43400 63.0 86.0 105.5 127.0 174.0
43450 63.0 86.0 105.5 127.0 174.0
43500 63.0 86.0 105.5 127.0 174.0
43550 63.0 86.0 105.5 127.0 174.0
43600 63.0 86.0 105.45 127.0 174.0
43650 63.0 86.0 105.45 127.0 174.0
43700 63.0 86.0 105.45 127.0 174.0
43750 63.0 86.0 105.45 127.0 174.0
43800 63.0 86.0 105.45 127.0 174.0
43850 63.0 86.0 105.45 127.0 174.0
43900 63.0 86.0 105.45 127.0 174.0
43950 63.0 86.0 105.45 127.0 174.0
44000 63.0 86.0 105.35 127.0 174.0
44050 63.0 86.0 105.35 127.0 174.0
44100 63.0 86.0 105.35 127.0 174.0
44150 63.0 86.0 104.95 127.0 174.0
44200 63.0 86.0 104.95 127.0 174.0
44250 63.0 86.0 104.95 127.0 174.0
44300 63.0 86.0 104.95 127.0 174.0
44350 63.0 86.0 104.95 127.0 174.0
44400 63.0 86.0 104.95 127.0 174.0
44450 63.0 86.0 104.95 127.0 174.0
44500 63.0 86.0 104.95 127.0 174.0
44550 63.0 86.0 104.95 127.0 174.0
44600 63.0 86.0 104.95 127.0 174.0
44650 63.0 86.0 104.95 127.0 174.0
44700 63.0 85.0 104.85 127.0 174.0
44750 63.0 85.0 104.85 127.0 174.0
44800 61.0 85.0 104.75 127.0 174.0
44850 61.0 85.0 104.75 127.0 174.0
44900 61.0 85.0 104.75 127.0 174.0
44950 61.0 85.0 104.75 127.0 174.0
45000 61.0 85.0 104.75 127.0 174.0
45050 61.0 85.0 104.25 127.0 164.0
45100 61.0 85.0 104.2 127.0 164.0
45150 61.0 85.0 104.2 127.0 164.0
45200 61.0 85.0 104.2 127.0 164.0
45250 61.0 85.0 104.2 127.0 164.0
45300 61.0 85.0 104.2 127.0 164.0
45350 61.0 85.0 104.2 127.0 164.0
45400 61.0 85.0 104.1 127.0 164.0
45450 61.0 85.0 104.1 127.0 164.0
45500 61.0 85.0 104.1 127.0 164.0
45550 61.0 85.0 104.5 127.0 164.0
45600 61.0 85.0 104.35 127.0 164.0
45650 61.0 85.0 104.35 127.0 164.0
45700 61.0 85.0 104.35 127.0 164.0
45750 49.0 84.0 99.3 117.0 164.0
45800 49.0 84.0 99.3 117.0 164.0
45850 49.0 84.0 99.3 117.0 164.0
45900 49.0 84.0 99.3 117.0 164.0
45950 49.0 84.0 99.3 117.0 164.0
46000 49.0 84.0 99.3 117.0 164.0
46050 49.0 84.0 99.3 117.0 164.0
46100 49.0 84.0 99.3 117.0 164.0
46150 49.0 84.0 99.3 117.0 164.0
46200 49.0 84.0 99.3 117.0 164.0
46250 49.0 84.0 99.3 117.0 164.0
46300 49.0 84.0 99.3 117.0 164.0
46350 49.0 84.0 99.3 117.0 164.0
46400 49.0 84.0 99.3 117.0 164.0
46450 49.0 84.0 99.3 117.0 164.0
46500 49.0 84.0 99.3 117.0 164.0
46550 49.0 84.0 99.3 117.0 164.0
46600 49.0 84.0 99.3 117.0 164.0
46650 49.0 84.0 99.3 117.0 164.0
46700 49.0 84.0 99.3 117.0 164.0
46750 49.0 84.0 99.3 117.0 164.0
46800 49.0 84.0 99.3 117.0 164.0
46850 49.0 84.0 99.3 117.0 164.0
46900 49.0 84.0 99.3 117.0 164.0
46950 49.0 84.0 99.3 117.0 164.0
47000 49.0 84.0 99.3 117.0 164.0
47050 49.0 84.0 99.2 117.0 164.0
47100 49.0 84.0 99.2 117.0 164.0
47150 49.0 84.0 99.2 117.0 164.0
47200 49.0 84.0 99.25 117.0 164.0
47250 49.0 84.0 99.2 117.0 164.0
47300 49.0 84.0 99.2 117.0 164.0
47350 49.0 84.0 99.25 117.0 164.0
47400 49.0 84.0 99.25 117.0 164.0
47450 49.0 84.0 99.25 117.0 164.0
47500 49.0 84.0 98.8 117.0 164.0
47550 49.0 84.0 98.8 117.0 164.0
47600 49.0 83.0 98.7 117.0 164.0
47650 49.0 83.0 98.7 117.0 164.0
47700 49.0 83.0 98.7 117.0 164.0
47750 49.0 83.0 98.7 117.0 164.0
47800 49.0 83.0 98.7 117.0 164.0
47850 49.0 83.0 98.7 117.0 164.0
47900 49.0 83.0 98.7 117.0 164.0
47950 49.0 83.0 98.7 117.0 164.0
48000 49.0 83.0 98.7 117.0 164.0
48050 49.0 83.0 98.7 117.0 164.0
48100 49.0 83.0 98.7 117.0 164.0
48150 49.0 83.0 98.7 117.0 164.0
48200 49.0 83.0 98.7 117.0 164.0
48250 49.0 83.0 98.6 117.0 164.0
48300 49.0 83.0 98.6 117.0 164.0
48350 49.0 83.0 98.6 117.0 164.0
48400 49.0 83.0 98.6 117.0 164.0
48450 49.0 83.0 98.6 117.0 164.0
48500 49.0 83.0 98.5 117.0 164.0
48550 49.0 83.0 98.5 117.0 164.0
48600 49.0 83.0 98.5 117.0 164.0
48650 49.0 83.0 98.5 117.0 164.0
48700 49.0 83.0 98.5 117.0 164.0
48750 49.0 83.0 98.45 117.0 164.0
48800 49.0 83.0 98.45 117.0 164.0
48850 49.0 83.0 98.45 117.0 164.0
48900 49.0 83.0 98.5 117.0 164.0
48950 49.0 83.0 98.5 117.0 164.0
49000 49.0 83.0 98.5 117.0 164.0
49050 49.0 83.0 98.5 117.0 164.0
49100 49.0 83.0 98.5 117.0 164.0
49150 49.0 83.0 98.5 117.0 164.0
49200 49.0 83.0 98.5 117.0 164.0
49250 49.0 83.0 98.4 117.0 164.0
49300 49.0 83.0 98.4 117.0 164.0
49350 49.0 83.0 98.4 117.0 164.0
49400 49.0 83.0 98.4 117.0 164.0
49450 49.0 83.0 98.4 117.0 164.0
49500 49.0 83.0 98.4 117.0 164.0
49550 49.0 83.0 98.4 117.0 164.0
49600 49.0 83.0 98.3 117.0 164.0
49650 49.0 83.0 98.3 117.0 164.0
49700 49.0 83.0 98.3 117.0 164.0
49750 49.0 83.0 98.3 117.0 164.0
49800 49.0 83.0 98.3 117.0 164.0
49850 49.0 83.0 98.3 117.0 164.0
49900 49.0 83.0 98.3 117.0 164.0
49950 49.0 83.0 98.3 117.0 164.0
50000 49.0 83.0 98.3 117.0 164.0
50050 49.0 83.0 98.35 117.0 164.0
